NAME
ROWS
 N  OBJ
 G  c1
 G  c2
 G  c3
 G  c4
 G  c5
 G  c6
 G  c7
 G  c8
 G  c9
 G  c10
 G  c11
 G  c12
 G  c13
 G  c14
 G  c15
 G  c16
 G  c17
 G  c18
 G  c19
 G  c20
 G  c21
 G  c22
 G  c23
 G  c24
 G  c25
 G  c26
 G  c27
 G  c28
 G  c29
 G  c30
 G  c31
 G  c32
 G  c33
 G  c34
 G  c35
 G  c36
 G  c37
 G  c38
 G  c39
 G  c40
 G  c41
 G  c42
 G  c43
 G  c44
 G  c45
 G  c46
 G  c47
 G  c48
 G  c49
 G  c50
 G  c51
 G  c52
 G  c53
 G  c54
 G  c55
 G  c56
 G  c57
 G  c58
 G  c59
 G  c60
 G  c61
 G  c62
 G  c63
 G  c64
 G  c65
 G  c66
 G  c67
 G  c68
 G  c69
 G  c70
COLUMNS
    MARKER    'MARKER'                 'INTORG'
    x[1]      c1        1
    x[1]      c3        1
    x[1]      c4        1
    x[1]      c8        1
    x[1]      c9        1
    x[1]      c16       1
    x[1]      c17       1
    x[1]      c22       1
    x[1]      c31       1
    x[1]      c51       1
    x[1]      OBJ       1
    x[2]      c2        1
    x[2]      c23       1
    x[2]      c24       1
    x[2]      c26       1
    x[2]      c60       1
    x[2]      OBJ       1
    x[3]      c1        1
    x[3]      c3        1
    x[3]      c6        1
    x[3]      c33       1
    x[3]      c36       1
    x[3]      c43       1
    x[3]      c62       1
    x[3]      c64       1
    x[3]      OBJ       1
    x[4]      c1        1
    x[4]      c4        1
    x[4]      c39       1
    x[4]      c42       1
    x[4]      c43       1
    x[4]      c57       1
    x[4]      c66       1
    x[4]      OBJ       1
    x[5]      c5        1
    x[5]      c17       1
    x[5]      c25       1
    x[5]      c28       1
    x[5]      c29       1
    x[5]      c38       1
    x[5]      c46       1
    x[5]      OBJ       1
    x[6]      c3        1
    x[6]      c6        1
    x[6]      c17       1
    x[6]      c21       1
    x[6]      c27       1
    x[6]      c29       1
    x[6]      c39       1
    x[6]      c45       1
    x[6]      c55       1
    x[6]      c65       1
    x[6]      OBJ       1
    x[7]      c7        1
    x[7]      c12       1
    x[7]      c33       1
    x[7]      c39       1
    x[7]      c42       1
    x[7]      OBJ       1
    x[8]      c1        1
    x[8]      c8        1
    x[8]      c13       1
    x[8]      c21       1
    x[8]      c26       1
    x[8]      c29       1
    x[8]      c43       1
    x[8]      c52       1
    x[8]      c53       1
    x[8]      c68       1
    x[8]      c70       1
    x[8]      OBJ       1
    x[9]      c1        1
    x[9]      c9        1
    x[9]      c26       1
    x[9]      c32       1
    x[9]      c43       1
    x[9]      c44       1
    x[9]      c50       1
    x[9]      c54       1
    x[9]      c70       1
    x[9]      OBJ       1
    x[10]     c10       1
    x[10]     c22       1
    x[10]     c25       1
    x[10]     c28       1
    x[10]     c31       1
    x[10]     c36       1
    x[10]     c42       1
    x[10]     c55       1
    x[10]     c56       1
    x[10]     c70       1
    x[10]     OBJ       1
    x[11]     c11       1
    x[11]     c19       1
    x[11]     c40       1
    x[11]     c48       1
    x[11]     OBJ       1
    x[12]     c7        1
    x[12]     c12       1
    x[12]     c19       1
    x[12]     c34       1
    x[12]     c44       1
    x[12]     c49       1
    x[12]     c53       1
    x[12]     c59       1
    x[12]     c68       1
    x[12]     OBJ       1
    x[13]     c8        1
    x[13]     c13       1
    x[13]     c23       1
    x[13]     c25       1
    x[13]     c30       1
    x[13]     c37       1
    x[13]     c43       1
    x[13]     c46       1
    x[13]     c47       1
    x[13]     c50       1
    x[13]     OBJ       1
    x[14]     c14       1
    x[14]     c24       1
    x[14]     c48       1
    x[14]     c53       1
    x[14]     c63       1
    x[14]     OBJ       1
    x[15]     c15       1
    x[15]     c18       1
    x[15]     c37       1
    x[15]     c45       1
    x[15]     c52       1
    x[15]     c66       1
    x[15]     c68       1
    x[15]     c70       1
    x[15]     OBJ       1
    x[16]     c1        1
    x[16]     c16       1
    x[16]     c21       1
    x[16]     c24       1
    x[16]     c29       1
    x[16]     c43       1
    x[16]     c45       1
    x[16]     OBJ       1
    x[17]     c1        1
    x[17]     c5        1
    x[17]     c6        1
    x[17]     c17       1
    x[17]     c21       1
    x[17]     c26       1
    x[17]     c39       1
    x[17]     c46       1
    x[17]     c56       1
    x[17]     c57       1
    x[17]     c63       1
    x[17]     c64       1
    x[17]     c68       1
    x[17]     OBJ       1
    x[18]     c15       1
    x[18]     c18       1
    x[18]     c21       1
    x[18]     c31       1
    x[18]     c68       1
    x[18]     OBJ       1
    x[19]     c11       1
    x[19]     c12       1
    x[19]     c19       1
    x[19]     c44       1
    x[19]     OBJ       1
    x[20]     c20       1
    x[20]     c23       1
    x[20]     c30       1
    x[20]     c42       1
    x[20]     c48       1
    x[20]     c51       1
    x[20]     c68       1
    x[20]     OBJ       1
    x[21]     c6        1
    x[21]     c8        1
    x[21]     c16       1
    x[21]     c17       1
    x[21]     c18       1
    x[21]     c21       1
    x[21]     c27       1
    x[21]     c37       1
    x[21]     c54       1
    x[21]     c56       1
    x[21]     c57       1
    x[21]     c63       1
    x[21]     c67       1
    x[21]     c69       1
    x[21]     c70       1
    x[21]     OBJ       1
    x[22]     c1        1
    x[22]     c10       1
    x[22]     c22       1
    x[22]     c23       1
    x[22]     c36       1
    x[22]     c70       1
    x[22]     OBJ       1
    x[23]     c2        1
    x[23]     c13       1
    x[23]     c20       1
    x[23]     c22       1
    x[23]     c23       1
    x[23]     c27       1
    x[23]     c32       1
    x[23]     c41       1
    x[23]     c44       1
    x[23]     c46       1
    x[23]     c54       1
    x[23]     c57       1
    x[23]     c59       1
    x[23]     c68       1
    x[23]     OBJ       1
    x[24]     c2        1
    x[24]     c14       1
    x[24]     c16       1
    x[24]     c24       1
    x[24]     c43       1
    x[24]     c44       1
    x[24]     c48       1
    x[24]     c60       1
    x[24]     c68       1
    x[24]     OBJ       1
    x[25]     c5        1
    x[25]     c10       1
    x[25]     c13       1
    x[25]     c25       1
    x[25]     c33       1
    x[25]     c34       1
    x[25]     c44       1
    x[25]     c48       1
    x[25]     c62       1
    x[25]     c66       1
    x[25]     OBJ       1
    x[26]     c2        1
    x[26]     c8        1
    x[26]     c9        1
    x[26]     c17       1
    x[26]     c26       1
    x[26]     c54       1
    x[26]     c60       1
    x[26]     OBJ       1
    x[27]     c6        1
    x[27]     c21       1
    x[27]     c23       1
    x[27]     c27       1
    x[27]     c34       1
    x[27]     c37       1
    x[27]     c57       1
    x[27]     c59       1
    x[27]     c64       1
    x[27]     c69       1
    x[27]     OBJ       1
    x[28]     c5        1
    x[28]     c10       1
    x[28]     c28       1
    x[28]     c37       1
    x[28]     c44       1
    x[28]     c50       1
    x[28]     c57       1
    x[28]     c59       1
    x[28]     OBJ       1
    x[29]     c5        1
    x[29]     c6        1
    x[29]     c8        1
    x[29]     c16       1
    x[29]     c29       1
    x[29]     c46       1
    x[29]     c49       1
    x[29]     c55       1
    x[29]     c59       1
    x[29]     c65       1
    x[29]     c68       1
    x[29]     OBJ       1
    x[30]     c13       1
    x[30]     c20       1
    x[30]     c30       1
    x[30]     c36       1
    x[30]     c39       1
    x[30]     c56       1
    x[30]     OBJ       1
    x[31]     c1        1
    x[31]     c10       1
    x[31]     c18       1
    x[31]     c31       1
    x[31]     c33       1
    x[31]     c59       1
    x[31]     c63       1
    x[31]     c68       1
    x[31]     c69       1
    x[31]     c70       1
    x[31]     OBJ       1
    x[32]     c9        1
    x[32]     c23       1
    x[32]     c32       1
    x[32]     c44       1
    x[32]     c58       1
    x[32]     c67       1
    x[32]     c69       1
    x[32]     OBJ       1
    x[33]     c3        1
    x[33]     c7        1
    x[33]     c25       1
    x[33]     c31       1
    x[33]     c33       1
    x[33]     c66       1
    x[33]     OBJ       1
    x[34]     c12       1
    x[34]     c25       1
    x[34]     c27       1
    x[34]     c34       1
    x[34]     c65       1
    x[34]     OBJ       1
    x[35]     c35       1
    x[35]     c39       1
    x[35]     c47       1
    x[35]     c58       1
    x[35]     OBJ       1
    x[36]     c3        1
    x[36]     c10       1
    x[36]     c22       1
    x[36]     c30       1
    x[36]     c36       1
    x[36]     c46       1
    x[36]     OBJ       1
    x[37]     c13       1
    x[37]     c15       1
    x[37]     c21       1
    x[37]     c27       1
    x[37]     c28       1
    x[37]     c37       1
    x[37]     c40       1
    x[37]     c69       1
    x[37]     OBJ       1
    x[38]     c5        1
    x[38]     c38       1
    x[38]     c46       1
    x[38]     c48       1
    x[38]     c59       1
    x[38]     OBJ       1
    x[39]     c4        1
    x[39]     c6        1
    x[39]     c7        1
    x[39]     c17       1
    x[39]     c30       1
    x[39]     c35       1
    x[39]     c39       1
    x[39]     c52       1
    x[39]     c60       1
    x[39]     OBJ       1
    x[40]     c11       1
    x[40]     c37       1
    x[40]     c40       1
    x[40]     c43       1
    x[40]     c44       1
    x[40]     c59       1
    x[40]     c70       1
    x[40]     OBJ       1
    x[41]     c23       1
    x[41]     c41       1
    x[41]     c55       1
    x[41]     c64       1
    x[41]     OBJ       1
    x[42]     c4        1
    x[42]     c7        1
    x[42]     c10       1
    x[42]     c20       1
    x[42]     c42       1
    x[42]     c54       1
    x[42]     OBJ       1
    x[43]     c3        1
    x[43]     c4        1
    x[43]     c8        1
    x[43]     c9        1
    x[43]     c13       1
    x[43]     c16       1
    x[43]     c24       1
    x[43]     c40       1
    x[43]     c43       1
    x[43]     c50       1
    x[43]     c51       1
    x[43]     c70       1
    x[43]     OBJ       1
    x[44]     c9        1
    x[44]     c12       1
    x[44]     c19       1
    x[44]     c23       1
    x[44]     c24       1
    x[44]     c25       1
    x[44]     c28       1
    x[44]     c32       1
    x[44]     c40       1
    x[44]     c44       1
    x[44]     c65       1
    x[44]     OBJ       1
    x[45]     c6        1
    x[45]     c15       1
    x[45]     c16       1
    x[45]     c45       1
    x[45]     c47       1
    x[45]     c51       1
    x[45]     OBJ       1
    x[46]     c5        1
    x[46]     c13       1
    x[46]     c17       1
    x[46]     c23       1
    x[46]     c29       1
    x[46]     c36       1
    x[46]     c38       1
    x[46]     c46       1
    x[46]     c47       1
    x[46]     c55       1
    x[46]     OBJ       1
    x[47]     c13       1
    x[47]     c35       1
    x[47]     c45       1
    x[47]     c46       1
    x[47]     c47       1
    x[47]     c68       1
    x[47]     c69       1
    x[47]     OBJ       1
    x[48]     c11       1
    x[48]     c14       1
    x[48]     c20       1
    x[48]     c24       1
    x[48]     c25       1
    x[48]     c38       1
    x[48]     c48       1
    x[48]     c54       1
    x[48]     c58       1
    x[48]     OBJ       1
    x[49]     c12       1
    x[49]     c29       1
    x[49]     c49       1
    x[49]     c56       1
    x[49]     c58       1
    x[49]     c59       1
    x[49]     OBJ       1
    x[50]     c9        1
    x[50]     c13       1
    x[50]     c28       1
    x[50]     c43       1
    x[50]     c50       1
    x[50]     OBJ       1
    x[51]     c1        1
    x[51]     c20       1
    x[51]     c43       1
    x[51]     c45       1
    x[51]     c51       1
    x[51]     c63       1
    x[51]     c68       1
    x[51]     OBJ       1
    x[52]     c8        1
    x[52]     c15       1
    x[52]     c39       1
    x[52]     c52       1
    x[52]     c56       1
    x[52]     c65       1
    x[52]     OBJ       1
    x[53]     c8        1
    x[53]     c12       1
    x[53]     c14       1
    x[53]     c53       1
    x[53]     c54       1
    x[53]     c56       1
    x[53]     c65       1
    x[53]     c66       1
    x[53]     OBJ       1
    x[54]     c9        1
    x[54]     c21       1
    x[54]     c23       1
    x[54]     c26       1
    x[54]     c42       1
    x[54]     c48       1
    x[54]     c53       1
    x[54]     c54       1
    x[54]     c69       1
    x[54]     OBJ       1
    x[55]     c6        1
    x[55]     c10       1
    x[55]     c29       1
    x[55]     c41       1
    x[55]     c46       1
    x[55]     c55       1
    x[55]     c57       1
    x[55]     c59       1
    x[55]     c64       1
    x[55]     OBJ       1
    x[56]     c10       1
    x[56]     c17       1
    x[56]     c21       1
    x[56]     c30       1
    x[56]     c49       1
    x[56]     c52       1
    x[56]     c53       1
    x[56]     c56       1
    x[56]     OBJ       1
    x[57]     c4        1
    x[57]     c17       1
    x[57]     c21       1
    x[57]     c23       1
    x[57]     c27       1
    x[57]     c28       1
    x[57]     c55       1
    x[57]     c57       1
    x[57]     c61       1
    x[57]     OBJ       1
    x[58]     c32       1
    x[58]     c35       1
    x[58]     c48       1
    x[58]     c49       1
    x[58]     c58       1
    x[58]     OBJ       1
    x[59]     c12       1
    x[59]     c23       1
    x[59]     c27       1
    x[59]     c28       1
    x[59]     c29       1
    x[59]     c31       1
    x[59]     c38       1
    x[59]     c40       1
    x[59]     c49       1
    x[59]     c55       1
    x[59]     c59       1
    x[59]     c69       1
    x[59]     OBJ       1
    x[60]     c2        1
    x[60]     c24       1
    x[60]     c26       1
    x[60]     c39       1
    x[60]     c60       1
    x[60]     c66       1
    x[60]     c67       1
    x[60]     OBJ       1
    x[61]     c57       1
    x[61]     c61       1
    x[61]     c66       1
    x[61]     OBJ       1
    x[62]     c3        1
    x[62]     c25       1
    x[62]     c62       1
    x[62]     c69       1
    x[62]     OBJ       1
    x[63]     c14       1
    x[63]     c17       1
    x[63]     c21       1
    x[63]     c31       1
    x[63]     c51       1
    x[63]     c63       1
    x[63]     OBJ       1
    x[64]     c3        1
    x[64]     c17       1
    x[64]     c27       1
    x[64]     c41       1
    x[64]     c55       1
    x[64]     c64       1
    x[64]     c65       1
    x[64]     c68       1
    x[64]     OBJ       1
    x[65]     c6        1
    x[65]     c29       1
    x[65]     c34       1
    x[65]     c44       1
    x[65]     c52       1
    x[65]     c53       1
    x[65]     c64       1
    x[65]     c65       1
    x[65]     OBJ       1
    x[66]     c4        1
    x[66]     c15       1
    x[66]     c25       1
    x[66]     c33       1
    x[66]     c53       1
    x[66]     c60       1
    x[66]     c61       1
    x[66]     c66       1
    x[66]     OBJ       1
    x[67]     c21       1
    x[67]     c32       1
    x[67]     c60       1
    x[67]     c67       1
    x[67]     c68       1
    x[67]     c69       1
    x[67]     OBJ       1
    x[68]     c8        1
    x[68]     c12       1
    x[68]     c15       1
    x[68]     c17       1
    x[68]     c18       1
    x[68]     c20       1
    x[68]     c23       1
    x[68]     c24       1
    x[68]     c29       1
    x[68]     c31       1
    x[68]     c47       1
    x[68]     c51       1
    x[68]     c64       1
    x[68]     c67       1
    x[68]     c68       1
    x[68]     c70       1
    x[68]     OBJ       1
    x[69]     c21       1
    x[69]     c27       1
    x[69]     c31       1
    x[69]     c32       1
    x[69]     c37       1
    x[69]     c47       1
    x[69]     c54       1
    x[69]     c59       1
    x[69]     c62       1
    x[69]     c67       1
    x[69]     c69       1
    x[69]     OBJ       1
    x[70]     c8        1
    x[70]     c9        1
    x[70]     c10       1
    x[70]     c15       1
    x[70]     c21       1
    x[70]     c22       1
    x[70]     c31       1
    x[70]     c40       1
    x[70]     c43       1
    x[70]     c68       1
    x[70]     c70       1
    x[70]     OBJ       1
    MARKER    'MARKER'                 'INTEND'
RHS
    rhs       c1        1
    rhs       c2        1
    rhs       c3        1
    rhs       c4        1
    rhs       c5        1
    rhs       c6        1
    rhs       c7        1
    rhs       c8        1
    rhs       c9        1
    rhs       c10       1
    rhs       c11       1
    rhs       c12       1
    rhs       c13       1
    rhs       c14       1
    rhs       c15       1
    rhs       c16       1
    rhs       c17       1
    rhs       c18       1
    rhs       c19       1
    rhs       c20       1
    rhs       c21       1
    rhs       c22       1
    rhs       c23       1
    rhs       c24       1
    rhs       c25       1
    rhs       c26       1
    rhs       c27       1
    rhs       c28       1
    rhs       c29       1
    rhs       c30       1
    rhs       c31       1
    rhs       c32       1
    rhs       c33       1
    rhs       c34       1
    rhs       c35       1
    rhs       c36       1
    rhs       c37       1
    rhs       c38       1
    rhs       c39       1
    rhs       c40       1
    rhs       c41       1
    rhs       c42       1
    rhs       c43       1
    rhs       c44       1
    rhs       c45       1
    rhs       c46       1
    rhs       c47       1
    rhs       c48       1
    rhs       c49       1
    rhs       c50       1
    rhs       c51       1
    rhs       c52       1
    rhs       c53       1
    rhs       c54       1
    rhs       c55       1
    rhs       c56       1
    rhs       c57       1
    rhs       c58       1
    rhs       c59       1
    rhs       c60       1
    rhs       c61       1
    rhs       c62       1
    rhs       c63       1
    rhs       c64       1
    rhs       c65       1
    rhs       c66       1
    rhs       c67       1
    rhs       c68       1
    rhs       c69       1
    rhs       c70       1
RANGES
BOUNDS
 BV bounds    x[1]
 BV bounds    x[2]
 BV bounds    x[3]
 BV bounds    x[4]
 BV bounds    x[5]
 BV bounds    x[6]
 BV bounds    x[7]
 BV bounds    x[8]
 BV bounds    x[9]
 BV bounds    x[10]
 BV bounds    x[11]
 BV bounds    x[12]
 BV bounds    x[13]
 BV bounds    x[14]
 BV bounds    x[15]
 BV bounds    x[16]
 BV bounds    x[17]
 BV bounds    x[18]
 BV bounds    x[19]
 BV bounds    x[20]
 BV bounds    x[21]
 BV bounds    x[22]
 BV bounds    x[23]
 BV bounds    x[24]
 BV bounds    x[25]
 BV bounds    x[26]
 BV bounds    x[27]
 BV bounds    x[28]
 BV bounds    x[29]
 BV bounds    x[30]
 BV bounds    x[31]
 BV bounds    x[32]
 BV bounds    x[33]
 BV bounds    x[34]
 BV bounds    x[35]
 BV bounds    x[36]
 BV bounds    x[37]
 BV bounds    x[38]
 BV bounds    x[39]
 BV bounds    x[40]
 BV bounds    x[41]
 BV bounds    x[42]
 BV bounds    x[43]
 BV bounds    x[44]
 BV bounds    x[45]
 BV bounds    x[46]
 BV bounds    x[47]
 BV bounds    x[48]
 BV bounds    x[49]
 BV bounds    x[50]
 BV bounds    x[51]
 BV bounds    x[52]
 BV bounds    x[53]
 BV bounds    x[54]
 BV bounds    x[55]
 BV bounds    x[56]
 BV bounds    x[57]
 BV bounds    x[58]
 BV bounds    x[59]
 BV bounds    x[60]
 BV bounds    x[61]
 BV bounds    x[62]
 BV bounds    x[63]
 BV bounds    x[64]
 BV bounds    x[65]
 BV bounds    x[66]
 BV bounds    x[67]
 BV bounds    x[68]
 BV bounds    x[69]
 BV bounds    x[70]
ENDATA
